(set-logic ALL)
(declare-fun var0 () String)
(assert (str.in_re var0 (re.++ (re.* (re.union (str.to_re "00") (str.to_re "11"))) (re.++ (re.union (re.* (str.to_re "2")) (re.* (str.to_re "3"))) (re.++ (re.union (re.union (str.to_re "4") (str.to_re "55")) (re.union (str.to_re "666") (str.to_re "77"))) (re.++ (re.union (re.+ (str.to_re "8")) (re.+ (str.to_re "9"))) (re.++ (re.union (re.* (str.to_re "aa")) (re.* (str.to_re "bb"))) (re.++ (re.union (re.* (str.to_re "c")) (re.* (str.to_re "dd"))) (re.++ (re.union (re.+ (str.to_re "eee")) (re.+ (str.to_re "ff"))) (re.++ (re.* (re.* (str.to_re "ggg"))) (re.++ (re.+ (re.union (str.to_re "hh") (str.to_re "iii"))) (re.* (re.union (str.to_re "jj") (str.to_re "kkk"))))))))))))))
(assert (<= 476 (str.len var0)))
(check-sat)